p cnf 960 2464
51 -694 -695 0
-51 694 0
-51 695 0
52 -51 -3 0
-52 51 0
-52 3 0
53 -5 -4 0
-53 5 0
-53 4 0
54 -53 -6 0
-54 53 0
-54 6 0
55 -696 -697 0
-55 696 0
-55 697 0
56 -8 -7 0
-56 8 0
-56 7 0
57 -56 -698 0
-57 56 0
-57 698 0
58 -699 -55 0
-58 699 0
-58 55 0
59 -700 -701 0
-59 700 0
-59 701 0
60 -59 -12 0
-60 59 0
-60 12 0
61 -702 -58 0
-61 702 0
-61 58 0
62 -13 -12 0
-62 13 0
-62 12 0
63 -62 -703 0
-63 62 0
-63 703 0
64 -704 -61 0
-64 704 0
-64 61 0
65 -705 -706 0
-65 705 0
-65 706 0
66 -65 -17 0
-66 65 0
-66 17 0
67 -707 -64 0
-67 707 0
-67 64 0
68 -708 -18 0
-68 708 0
-68 18 0
69 -68 -709 0
-69 68 0
-69 709 0
70 -710 -67 0
-70 710 0
-70 67 0
71 -21 -701 0
-71 21 0
-71 701 0
72 -71 -711 0
-72 71 0
-72 711 0
73 -712 -70 0
-73 712 0
-73 70 0
74 -713 -711 0
-74 713 0
-74 711 0
75 -74 -714 0
-75 74 0
-75 714 0
76 -715 -73 0
-76 715 0
-76 73 0
77 -716 -717 0
-77 716 0
-77 717 0
78 -77 -718 0
-78 77 0
-78 718 0
79 -719 -76 0
-79 719 0
-79 76 0
80 -720 -18 0
-80 720 0
-80 18 0
81 -80 -721 0
-81 80 0
-81 721 0
82 -722 -79 0
-82 722 0
-82 79 0
83 -723 -705 0
-83 723 0
-83 705 0
84 -83 -13 0
-84 83 0
-84 13 0
85 -724 -82 0
-85 724 0
-85 82 0
86 -725 -1 0
-86 725 0
-86 1 0
87 -86 -30 0
-87 86 0
-87 30 0
88 -726 -85 0
-88 726 0
-88 85 0
89 -19 -18 0
-89 19 0
-89 18 0
90 -89 -14 0
-90 89 0
-90 14 0
91 -727 -88 0
-91 727 0
-91 88 0
92 -728 -21 0
-92 728 0
-92 21 0
93 -92 -13 0
-93 92 0
-93 13 0
94 -729 -91 0
-94 729 0
-94 91 0
95 -730 -731 0
-95 730 0
-95 731 0
96 -95 -7 0
-96 95 0
-96 7 0
97 -732 -94 0
-97 732 0
-97 94 0
98 -731 -11 0
-98 731 0
-98 11 0
99 -98 -22 0
-99 98 0
-99 22 0
100 -733 -97 0
-100 733 0
-100 97 0
101 -95 -734 0
-101 95 0
-101 734 0
102 -735 -100 0
-102 735 0
-102 100 0
103 -706 -1 0
-103 706 0
-103 1 0
104 -103 -14 0
-104 103 0
-104 14 0
105 -736 -102 0
-105 736 0
-105 102 0
106 -731 -723 0
-106 731 0
-106 723 0
107 -106 -737 0
-107 106 0
-107 737 0
108 -738 -105 0
-108 738 0
-108 105 0
109 -19 -7 0
-109 19 0
-109 7 0
110 -109 -36 0
-110 109 0
-110 36 0
111 -739 -108 0
-111 739 0
-111 108 0
112 -38 -37 0
-112 38 0
-112 37 0
113 -112 -740 0
-113 112 0
-113 740 0
114 -741 -111 0
-114 741 0
-114 111 0
115 -742 -32 0
-115 742 0
-115 32 0
116 -115 -700 0
-116 115 0
-116 700 0
117 -743 -114 0
-117 743 0
-117 114 0
118 -40 -703 0
-118 40 0
-118 703 0
119 -118 -714 0
-119 118 0
-119 714 0
120 -744 -117 0
-120 744 0
-120 117 0
121 -35 -745 0
-121 35 0
-121 745 0
122 -121 -714 0
-122 121 0
-122 714 0
123 -746 -120 0
-123 746 0
-123 120 0
124 -747 -748 0
-124 747 0
-124 748 0
125 -124 -740 0
-125 124 0
-125 740 0
126 -749 -123 0
-126 749 0
-126 123 0
127 -750 -706 0
-127 750 0
-127 706 0
128 -127 -19 0
-128 127 0
-128 19 0
129 -751 -126 0
-129 751 0
-129 126 0
130 -752 -31 0
-130 752 0
-130 31 0
131 -130 -26 0
-131 130 0
-131 26 0
132 -753 -129 0
-132 753 0
-132 129 0
133 -731 -1 0
-133 731 0
-133 1 0
134 -133 -23 0
-134 133 0
-134 23 0
135 -754 -132 0
-135 754 0
-135 132 0
136 -755 -756 0
-136 755 0
-136 756 0
137 -136 -757 0
-137 136 0
-137 757 0
138 -758 -135 0
-138 758 0
-138 135 0
139 -43 -31 0
-139 43 0
-139 31 0
140 -139 -718 0
-140 139 0
-140 718 0
141 -759 -138 0
-141 759 0
-141 138 0
142 -33 -14 0
-142 33 0
-142 14 0
143 -142 -714 0
-143 142 0
-143 714 0
144 -760 -141 0
-144 760 0
-144 141 0
145 -742 -34 0
-145 742 0
-145 34 0
146 -145 -30 0
-146 145 0
-146 30 0
147 -761 -144 0
-147 761 0
-147 144 0
148 -762 -757 0
-148 762 0
-148 757 0
149 -148 -8 0
-149 148 0
-149 8 0
150 -763 -147 0
-150 763 0
-150 147 0
151 -5 -764 0
-151 5 0
-151 764 0
152 -151 -8 0
-152 151 0
-152 8 0
153 -765 -150 0
-153 765 0
-153 150 0
154 -766 -750 0
-154 766 0
-154 750 0
155 -154 -711 0
-155 154 0
-155 711 0
156 -767 -153 0
-156 767 0
-156 153 0
157 -48 -703 0
-157 48 0
-157 703 0
158 -157 -6 0
-158 157 0
-158 6 0
159 -768 -156 0
-159 768 0
-159 156 0
160 -766 -755 0
-160 766 0
-160 755 0
161 -160 -713 0
-161 160 0
-161 713 0
162 -769 -159 0
-162 769 0
-162 159 0
163 -725 -716 0
-163 725 0
-163 716 0
164 -163 -36 0
-164 163 0
-164 36 0
165 -770 -162 0
-165 770 0
-165 162 0
166 -731 -700 0
-166 731 0
-166 700 0
167 -166 -46 0
-167 166 0
-167 46 0
168 -771 -165 0
-168 771 0
-168 165 0
169 -18 -717 0
-169 18 0
-169 717 0
170 -169 -25 0
-170 169 0
-170 25 0
171 -772 -168 0
-171 772 0
-171 168 0
172 -737 -34 0
-172 737 0
-172 34 0
173 -172 -773 0
-173 172 0
-173 773 0
174 -774 -171 0
-174 774 0
-174 171 0
175 -13 -7 0
-175 13 0
-175 7 0
176 -175 -775 0
-176 175 0
-176 775 0
177 -776 -174 0
-177 776 0
-177 174 0
178 -752 -28 0
-178 752 0
-178 28 0
179 -178 -20 0
-179 178 0
-179 20 0
180 -777 -177 0
-180 777 0
-180 177 0
181 -44 -730 0
-181 44 0
-181 730 0
182 -181 -30 0
-182 181 0
-182 30 0
183 -778 -180 0
-183 778 0
-183 180 0
184 -27 -26 0
-184 27 0
-184 26 0
185 -184 -6 0
-185 184 0
-185 6 0
186 -779 -183 0
-186 779 0
-186 183 0
187 -725 -21 0
-187 725 0
-187 21 0
188 -187 -747 0
-188 187 0
-188 747 0
189 -780 -186 0
-189 780 0
-189 186 0
190 -10 -695 0
-190 10 0
-190 695 0
191 -190 -42 0
-191 190 0
-191 42 0
192 -781 -189 0
-192 781 0
-192 189 0
193 -41 -1 0
-193 41 0
-193 1 0
194 -193 -720 0
-194 193 0
-194 720 0
195 -782 -192 0
-195 782 0
-195 192 0
196 -11 -695 0
-196 11 0
-196 695 0
197 -196 -762 0
-197 196 0
-197 762 0
198 -783 -195 0
-198 783 0
-198 195 0
199 -29 -745 0
-199 29 0
-199 745 0
200 -199 -9 0
-200 199 0
-200 9 0
201 -784 -198 0
-201 784 0
-201 198 0
202 -737 -15 0
-202 737 0
-202 15 0
203 -202 -17 0
-203 202 0
-203 17 0
204 -785 -201 0
-204 785 0
-204 201 0
205 -786 -10 0
-205 786 0
-205 10 0
206 -205 -49 0
-206 205 0
-206 49 0
207 -787 -204 0
-207 787 0
-207 204 0
208 -16 -716 0
-208 16 0
-208 716 0
209 -208 -24 0
-209 208 0
-209 24 0
210 -788 -207 0
-210 788 0
-210 207 0
211 -42 -15 0
-211 42 0
-211 15 0
212 -211 -698 0
-212 211 0
-212 698 0
213 -789 -210 0
-213 789 0
-213 210 0
214 -730 -790 0
-214 730 0
-214 790 0
215 -214 -8 0
-215 214 0
-215 8 0
216 -791 -213 0
-216 791 0
-216 213 0
217 -48 -30 0
-217 48 0
-217 30 0
218 -217 -703 0
-218 217 0
-218 703 0
219 -792 -216 0
-219 792 0
-219 216 0
220 -48 -35 0
-220 48 0
-220 35 0
221 -220 -6 0
-221 220 0
-221 6 0
222 -793 -219 0
-222 793 0
-222 219 0
223 -16 -794 0
-223 16 0
-223 794 0
224 -223 -45 0
-224 223 0
-224 45 0
225 -795 -222 0
-225 795 0
-225 222 0
226 -737 -12 0
-226 737 0
-226 12 0
227 -226 -30 0
-227 226 0
-227 30 0
228 -796 -225 0
-228 796 0
-228 225 0
229 -742 -38 0
-229 742 0
-229 38 0
230 -229 -7 0
-230 229 0
-230 7 0
231 -797 -228 0
-231 797 0
-231 228 0
232 -41 -705 0
-232 41 0
-232 705 0
233 -232 -6 0
-233 232 0
-233 6 0
234 -798 -231 0
-234 798 0
-234 231 0
235 -786 -17 0
-235 786 0
-235 17 0
236 -235 -25 0
-236 235 0
-236 25 0
237 -799 -234 0
-237 799 0
-237 234 0
238 -16 -4 0
-238 16 0
-238 4 0
239 -238 -24 0
-239 238 0
-239 24 0
240 -800 -237 0
-240 800 0
-240 237 0
241 -734 -32 0
-241 734 0
-241 32 0
242 -241 -703 0
-242 241 0
-242 703 0
243 -801 -240 0
-243 801 0
-243 240 0
244 -11 -4 0
-244 11 0
-244 4 0
245 -244 -20 0
-245 244 0
-245 20 0
246 -802 -243 0
-246 802 0
-246 243 0
247 -750 -15 0
-247 750 0
-247 15 0
248 -247 -755 0
-248 247 0
-248 755 0
249 -803 -246 0
-249 803 0
-249 246 0
250 -700 -717 0
-250 700 0
-250 717 0
251 -250 -3 0
-251 250 0
-251 3 0
252 -804 -249 0
-252 804 0
-252 249 0
253 -29 -4 0
-253 29 0
-253 4 0
254 -253 -25 0
-254 253 0
-254 25 0
255 -805 -252 0
-255 805 0
-255 252 0
256 -47 -41 0
-256 47 0
-256 41 0
257 -256 -709 0
-257 256 0
-257 709 0
258 -806 -255 0
-258 806 0
-258 255 0
259 -18 -701 0
-259 18 0
-259 701 0
260 -259 -709 0
-260 259 0
-260 709 0
261 -807 -258 0
-261 807 0
-261 258 0
262 -752 -32 0
-262 752 0
-262 32 0
263 -262 -42 0
-263 262 0
-263 42 0
264 -808 -261 0
-264 808 0
-264 261 0
265 -766 -43 0
-265 766 0
-265 43 0
266 -265 -756 0
-266 265 0
-266 756 0
267 -809 -264 0
-267 809 0
-267 264 0
268 -810 -811 0
-268 810 0
-268 811 0
269 -268 -9 0
-269 268 0
-269 9 0
270 -812 -267 0
-270 812 0
-270 267 0
271 -27 -5 0
-271 27 0
-271 5 0
272 -271 -718 0
-272 271 0
-272 718 0
273 -813 -270 0
-273 813 0
-273 270 0
274 -39 -30 0
-274 39 0
-274 30 0
275 -274 -8 0
-275 274 0
-275 8 0
276 -814 -273 0
-276 814 0
-276 273 0
277 -757 -695 0
-277 757 0
-277 695 0
278 -277 -24 0
-278 277 0
-278 24 0
279 -815 -276 0
-279 815 0
-279 276 0
280 -810 -16 0
-280 810 0
-280 16 0
281 -280 -711 0
-281 280 0
-281 711 0
282 -816 -279 0
-282 816 0
-282 279 0
283 -730 -794 0
-283 730 0
-283 794 0
284 -283 -27 0
-284 283 0
-284 27 0
285 -817 -282 0
-285 817 0
-285 282 0
286 -742 -756 0
-286 742 0
-286 756 0
287 -286 -8 0
-287 286 0
-287 8 0
288 -818 -285 0
-288 818 0
-288 285 0
289 -737 -26 0
-289 737 0
-289 26 0
290 -289 -27 0
-290 289 0
-290 27 0
291 -819 -288 0
-291 819 0
-291 288 0
292 -48 -742 0
-292 48 0
-292 742 0
293 -292 -755 0
-293 292 0
-293 755 0
294 -820 -291 0
-294 820 0
-294 291 0
295 -730 -16 0
-295 730 0
-295 16 0
296 -295 -711 0
-296 295 0
-296 711 0
297 -821 -294 0
-297 821 0
-297 294 0
298 -15 -717 0
-298 15 0
-298 717 0
299 -298 -27 0
-299 298 0
-299 27 0
300 -822 -297 0
-300 822 0
-300 297 0
301 -731 -708 0
-301 731 0
-301 708 0
302 -301 -20 0
-302 301 0
-302 20 0
303 -823 -300 0
-303 823 0
-303 300 0
304 -40 -5 0
-304 40 0
-304 5 0
305 -304 -717 0
-305 304 0
-305 717 0
306 -824 -303 0
-306 824 0
-306 303 0
307 -731 -10 0
-307 731 0
-307 10 0
308 -307 -48 0
-308 307 0
-308 48 0
309 -825 -306 0
-309 825 0
-309 306 0
310 -725 -5 0
-310 725 0
-310 5 0
311 -310 -35 0
-311 310 0
-311 35 0
312 -826 -309 0
-312 826 0
-312 309 0
313 -748 -19 0
-313 748 0
-313 19 0
314 -313 -8 0
-314 313 0
-314 8 0
315 -827 -312 0
-315 827 0
-315 312 0
316 -725 -705 0
-316 725 0
-316 705 0
317 -316 -9 0
-317 316 0
-317 9 0
318 -828 -315 0
-318 828 0
-318 315 0
319 -28 -764 0
-319 28 0
-319 764 0
320 -319 -24 0
-320 319 0
-320 24 0
321 -829 -318 0
-321 829 0
-321 318 0
322 -47 -28 0
-322 47 0
-322 28 0
323 -322 -41 0
-323 322 0
-323 41 0
324 -830 -321 0
-324 830 0
-324 321 0
325 -30 -756 0
-325 30 0
-325 756 0
326 -325 -698 0
-326 325 0
-326 698 0
327 -831 -324 0
-327 831 0
-327 324 0
328 -762 -35 0
-328 762 0
-328 35 0
329 -328 -27 0
-329 328 0
-329 27 0
330 -832 -327 0
-330 832 0
-330 327 0
331 -13 -9 0
-331 13 0
-331 9 0
332 -331 -775 0
-332 331 0
-332 775 0
333 -833 -330 0
-333 833 0
-333 330 0
334 -711 -756 0
-334 711 0
-334 756 0
335 -334 -755 0
-335 334 0
-335 755 0
336 -834 -333 0
-336 834 0
-336 333 0
337 -734 -755 0
-337 734 0
-337 755 0
338 -337 -720 0
-338 337 0
-338 720 0
339 -835 -336 0
-339 835 0
-339 336 0
340 -730 -29 0
-340 730 0
-340 29 0
341 -340 -36 0
-341 340 0
-341 36 0
342 -836 -339 0
-342 836 0
-342 339 0
343 -48 -38 0
-343 48 0
-343 38 0
344 -343 -737 0
-344 343 0
-344 737 0
345 -837 -342 0
-345 837 0
-345 342 0
346 -26 -711 0
-346 26 0
-346 711 0
347 -346 -745 0
-347 346 0
-347 745 0
348 -838 -345 0
-348 838 0
-348 345 0
349 -810 -731 0
-349 810 0
-349 731 0
350 -349 -709 0
-350 349 0
-350 709 0
351 -839 -348 0
-351 839 0
-351 348 0
352 -26 -4 0
-352 26 0
-352 4 0
353 -352 -13 0
-353 352 0
-353 13 0
354 -840 -351 0
-354 840 0
-354 351 0
355 -762 -20 0
-355 762 0
-355 20 0
356 -355 -775 0
-356 355 0
-356 775 0
357 -841 -354 0
-357 841 0
-357 354 0
358 -723 -703 0
-358 723 0
-358 703 0
359 -358 -694 0
-359 358 0
-359 694 0
360 -842 -357 0
-360 842 0
-360 357 0
361 -757 -723 0
-361 757 0
-361 723 0
362 -361 -718 0
-362 361 0
-362 718 0
363 -843 -360 0
-363 843 0
-363 360 0
364 -757 -844 0
-364 757 0
-364 844 0
365 -364 -17 0
-365 364 0
-365 17 0
366 -845 -363 0
-366 845 0
-366 363 0
367 -44 -10 0
-367 44 0
-367 10 0
368 -367 -27 0
-368 367 0
-368 27 0
369 -846 -366 0
-369 846 0
-369 366 0
370 -41 -734 0
-370 41 0
-370 734 0
371 -370 -30 0
-371 370 0
-371 30 0
372 -847 -369 0
-372 847 0
-372 369 0
373 -19 -14 0
-373 19 0
-373 14 0
374 -373 -740 0
-374 373 0
-374 740 0
375 -848 -372 0
-375 848 0
-375 372 0
376 -48 -706 0
-376 48 0
-376 706 0
377 -376 -740 0
-377 376 0
-377 740 0
378 -849 -375 0
-378 849 0
-378 375 0
379 -731 -790 0
-379 731 0
-379 790 0
380 -379 -716 0
-380 379 0
-380 716 0
381 -850 -378 0
-381 850 0
-381 378 0
382 -33 -26 0
-382 33 0
-382 26 0
383 -382 -13 0
-383 382 0
-383 13 0
384 -851 -381 0
-384 851 0
-384 381 0
385 -852 -37 0
-385 852 0
-385 37 0
386 -385 -773 0
-386 385 0
-386 773 0
387 -853 -384 0
-387 853 0
-387 384 0
388 -41 -32 0
-388 41 0
-388 32 0
389 -388 -25 0
-389 388 0
-389 25 0
390 -854 -387 0
-390 854 0
-390 387 0
391 -38 -13 0
-391 38 0
-391 13 0
392 -391 -721 0
-392 391 0
-392 721 0
393 -855 -390 0
-393 855 0
-393 390 0
394 -37 -725 0
-394 37 0
-394 725 0
395 -394 -15 0
-395 394 0
-395 15 0
396 -856 -393 0
-396 856 0
-396 393 0
397 -711 -844 0
-397 711 0
-397 844 0
398 -397 -6 0
-398 397 0
-398 6 0
399 -857 -396 0
-399 857 0
-399 396 0
400 -44 -773 0
-400 44 0
-400 773 0
401 -400 -714 0
-401 400 0
-401 714 0
402 -858 -399 0
-402 858 0
-402 399 0
403 -859 -26 0
-403 859 0
-403 26 0
404 -403 -36 0
-404 403 0
-404 36 0
405 -860 -402 0
-405 860 0
-405 402 0
406 -713 -794 0
-406 713 0
-406 794 0
407 -406 -773 0
-407 406 0
-407 773 0
408 -861 -405 0
-408 861 0
-408 405 0
409 -46 -752 0
-409 46 0
-409 752 0
410 -409 -26 0
-410 409 0
-410 26 0
411 -862 -408 0
-411 862 0
-411 408 0
412 -34 -730 0
-412 34 0
-412 730 0
413 -412 -3 0
-413 412 0
-413 3 0
414 -863 -411 0
-414 863 0
-414 411 0
415 -750 -734 0
-415 750 0
-415 734 0
416 -415 -11 0
-416 415 0
-416 11 0
417 -864 -414 0
-417 864 0
-417 414 0
418 -47 -756 0
-418 47 0
-418 756 0
419 -418 -713 0
-419 418 0
-419 713 0
420 -865 -417 0
-420 865 0
-420 417 0
421 -794 -695 0
-421 794 0
-421 695 0
422 -421 -2 0
-422 421 0
-422 2 0
423 -866 -420 0
-423 866 0
-423 420 0
424 -29 -12 0
-424 29 0
-424 12 0
425 -424 -773 0
-425 424 0
-425 773 0
426 -867 -423 0
-426 867 0
-426 423 0
427 -40 -730 0
-427 40 0
-427 730 0
428 -427 -2 0
-428 427 0
-428 2 0
429 -868 -426 0
-429 868 0
-429 426 0
430 -766 -811 0
-430 766 0
-430 811 0
431 -430 -32 0
-431 430 0
-431 32 0
432 -869 -429 0
-432 869 0
-432 429 0
433 -32 -790 0
-433 32 0
-433 790 0
434 -433 -762 0
-434 433 0
-434 762 0
435 -870 -432 0
-435 870 0
-435 432 0
436 -752 -19 0
-436 752 0
-436 19 0
437 -436 -747 0
-437 436 0
-437 747 0
438 -871 -435 0
-438 871 0
-438 435 0
439 -745 -5 0
-439 745 0
-439 5 0
440 -439 -775 0
-440 439 0
-440 775 0
441 -872 -438 0
-441 872 0
-441 438 0
442 -810 -764 0
-442 810 0
-442 764 0
443 -442 -742 0
-443 442 0
-443 742 0
444 -873 -441 0
-444 873 0
-444 441 0
445 -48 -11 0
-445 48 0
-445 11 0
446 -445 -773 0
-446 445 0
-446 773 0
447 -874 -444 0
-447 874 0
-447 444 0
448 -852 -695 0
-448 852 0
-448 695 0
449 -448 -28 0
-449 448 0
-449 28 0
450 -875 -447 0
-450 875 0
-450 447 0
451 -750 -40 0
-451 750 0
-451 40 0
452 -451 -6 0
-452 451 0
-452 6 0
453 -876 -450 0
-453 876 0
-453 450 0
454 -762 -26 0
-454 762 0
-454 26 0
455 -454 -2 0
-455 454 0
-455 2 0
456 -877 -453 0
-456 877 0
-456 453 0
457 -430 -35 0
-457 430 0
-457 35 0
458 -878 -456 0
-458 878 0
-458 456 0
459 -43 -810 0
-459 43 0
-459 810 0
460 -459 -15 0
-460 459 0
-460 15 0
461 -879 -458 0
-461 879 0
-461 458 0
462 -742 -716 0
-462 742 0
-462 716 0
463 -462 -880 0
-463 462 0
-463 880 0
464 -881 -461 0
-464 881 0
-464 461 0
465 -786 -844 0
-465 786 0
-465 844 0
466 -465 -706 0
-466 465 0
-466 706 0
467 -882 -464 0
-467 882 0
-467 464 0
468 -18 -13 0
-468 18 0
-468 13 0
469 -468 -8 0
-469 468 0
-469 8 0
470 -883 -467 0
-470 883 0
-470 467 0
471 -39 -13 0
-471 39 0
-471 13 0
472 -471 -42 0
-472 471 0
-472 42 0
473 -884 -470 0
-473 884 0
-473 470 0
474 -38 -725 0
-474 38 0
-474 725 0
475 -474 -700 0
-475 474 0
-475 700 0
476 -885 -473 0
-476 885 0
-476 473 0
477 -18 -8 0
-477 18 0
-477 8 0
478 -477 -721 0
-478 477 0
-478 721 0
479 -886 -476 0
-479 886 0
-479 476 0
480 -766 -844 0
-480 766 0
-480 844 0
481 -480 -19 0
-481 480 0
-481 19 0
482 -887 -479 0
-482 887 0
-482 479 0
483 -44 -728 0
-483 44 0
-483 728 0
484 -483 -775 0
-484 483 0
-484 775 0
485 -888 -482 0
-485 888 0
-485 482 0
486 -29 -764 0
-486 29 0
-486 764 0
487 -486 -852 0
-487 486 0
-487 852 0
488 -889 -485 0
-488 889 0
-488 485 0
489 -742 -764 0
-489 742 0
-489 764 0
490 -489 -728 0
-490 489 0
-490 728 0
491 -890 -488 0
-491 890 0
-491 488 0
492 -748 -700 0
-492 748 0
-492 700 0
493 -492 -698 0
-493 492 0
-493 698 0
494 -891 -491 0
-494 891 0
-494 491 0
495 -730 -14 0
-495 730 0
-495 14 0
496 -495 -42 0
-496 495 0
-496 42 0
497 -892 -494 0
-497 892 0
-497 494 0
498 -43 -15 0
-498 43 0
-498 15 0
499 -498 -3 0
-499 498 0
-499 3 0
500 -893 -497 0
-500 893 0
-500 497 0
501 -844 -2 0
-501 844 0
-501 2 0
502 -501 -45 0
-502 501 0
-502 45 0
503 -894 -500 0
-503 894 0
-503 500 0
504 -716 -773 0
-504 716 0
-504 773 0
505 -504 -775 0
-505 504 0
-505 775 0
506 -895 -503 0
-506 895 0
-506 503 0
507 -23 -716 0
-507 23 0
-507 716 0
508 -507 -698 0
-508 507 0
-508 698 0
509 -896 -506 0
-509 896 0
-509 506 0
510 -43 -897 0
-510 43 0
-510 897 0
511 -510 -745 0
-511 510 0
-511 745 0
512 -898 -509 0
-512 898 0
-512 509 0
513 -713 -1 0
-513 713 0
-513 1 0
514 -513 -8 0
-514 513 0
-514 8 0
515 -899 -512 0
-515 899 0
-515 512 0
516 -705 -695 0
-516 705 0
-516 695 0
517 -516 -24 0
-517 516 0
-517 24 0
518 -900 -515 0
-518 900 0
-518 515 0
519 -29 -740 0
-519 29 0
-519 740 0
520 -519 -773 0
-520 519 0
-520 773 0
521 -901 -518 0
-521 901 0
-521 518 0
522 -25 -14 0
-522 25 0
-522 14 0
523 -522 -49 0
-523 522 0
-523 49 0
524 -902 -521 0
-524 902 0
-524 521 0
525 -29 -701 0
-525 29 0
-525 701 0
526 -525 -747 0
-526 525 0
-526 747 0
527 -903 -524 0
-527 903 0
-527 524 0
528 -859 -32 0
-528 859 0
-528 32 0
529 -528 -748 0
-529 528 0
-529 748 0
530 -904 -527 0
-530 904 0
-530 527 0
531 -28 -701 0
-531 28 0
-531 701 0
532 -531 -35 0
-532 531 0
-532 35 0
533 -905 -530 0
-533 905 0
-533 530 0
534 -852 -23 0
-534 852 0
-534 23 0
535 -534 -14 0
-535 534 0
-535 14 0
536 -906 -533 0
-536 906 0
-536 533 0
537 -755 -1 0
-537 755 0
-537 1 0
538 -537 -20 0
-538 537 0
-538 20 0
539 -907 -536 0
-539 907 0
-539 536 0
540 -786 -705 0
-540 786 0
-540 705 0
541 -540 -698 0
-541 540 0
-541 698 0
542 -908 -539 0
-542 908 0
-542 539 0
543 -728 -13 0
-543 728 0
-543 13 0
544 -543 -2 0
-544 543 0
-544 2 0
545 -909 -542 0
-545 909 0
-545 542 0
546 -742 -4 0
-546 742 0
-546 4 0
547 -546 -790 0
-547 546 0
-547 790 0
548 -910 -545 0
-548 910 0
-548 545 0
549 -289 -17 0
-549 289 0
-549 17 0
550 -911 -548 0
-550 911 0
-550 548 0
551 -859 -703 0
-551 859 0
-551 703 0
552 -551 -709 0
-552 551 0
-552 709 0
553 -912 -550 0
-553 912 0
-553 550 0
554 -20 -716 0
-554 20 0
-554 716 0
555 -554 -740 0
-555 554 0
-555 740 0
556 -913 -553 0
-556 913 0
-556 553 0
557 -31 -21 0
-557 31 0
-557 21 0
558 -557 -42 0
-558 557 0
-558 42 0
559 -914 -556 0
-559 914 0
-559 556 0
560 -756 -15 0
-560 756 0
-560 15 0
561 -560 -757 0
-561 560 0
-561 757 0
562 -915 -559 0
-562 915 0
-562 559 0
563 -38 -10 0
-563 38 0
-563 10 0
564 -563 -3 0
-564 563 0
-564 3 0
565 -916 -562 0
-565 916 0
-565 562 0
566 -810 -32 0
-566 810 0
-566 32 0
567 -566 -24 0
-567 566 0
-567 24 0
568 -917 -565 0
-568 917 0
-568 565 0
569 -30 -6 0
-569 30 0
-569 6 0
570 -569 -3 0
-570 569 0
-570 3 0
571 -918 -568 0
-571 918 0
-571 568 0
572 -762 -38 0
-572 762 0
-572 38 0
573 -572 -713 0
-573 572 0
-573 713 0
574 -919 -571 0
-574 919 0
-574 571 0
575 -811 -29 0
-575 811 0
-575 29 0
576 -575 -745 0
-576 575 0
-576 745 0
577 -920 -574 0
-577 920 0
-577 574 0
578 -47 -708 0
-578 47 0
-578 708 0
579 -578 -20 0
-579 578 0
-579 20 0
580 -921 -577 0
-580 921 0
-580 577 0
581 -35 -15 0
-581 35 0
-581 15 0
582 -581 -711 0
-582 581 0
-582 711 0
583 -922 -580 0
-583 922 0
-583 580 0
584 -37 -737 0
-584 37 0
-584 737 0
585 -584 -711 0
-585 584 0
-585 711 0
586 -923 -583 0
-586 923 0
-586 583 0
587 -33 -13 0
-587 33 0
-587 13 0
588 -587 -717 0
-588 587 0
-588 717 0
589 -924 -586 0
-589 924 0
-589 586 0
590 -39 -713 0
-590 39 0
-590 713 0
591 -590 -14 0
-591 590 0
-591 14 0
592 -925 -589 0
-592 925 0
-592 589 0
593 -33 -10 0
-593 33 0
-593 10 0
594 -593 -737 0
-594 593 0
-594 737 0
595 -926 -592 0
-595 926 0
-595 592 0
596 -48 -33 0
-596 48 0
-596 33 0
597 -596 -36 0
-597 596 0
-597 36 0
598 -927 -595 0
-598 927 0
-598 595 0
599 -731 -694 0
-599 731 0
-599 694 0
600 -599 -45 0
-600 599 0
-600 45 0
601 -928 -598 0
-601 928 0
-601 598 0
602 -47 -13 0
-602 47 0
-602 13 0
603 -602 -694 0
-603 602 0
-603 694 0
604 -929 -601 0
-604 929 0
-604 601 0
605 -12 -4 0
-605 12 0
-605 4 0
606 -605 -46 0
-606 605 0
-606 46 0
607 -930 -604 0
-607 930 0
-607 604 0
608 -14 -4 0
-608 14 0
-608 4 0
609 -608 -9 0
-609 608 0
-609 9 0
610 -931 -607 0
-610 931 0
-610 607 0
611 -39 -711 0
-611 39 0
-611 711 0
612 -611 -23 0
-612 611 0
-612 23 0
613 -932 -610 0
-613 932 0
-613 610 0
614 -22 -20 0
-614 22 0
-614 20 0
615 -614 -6 0
-615 614 0
-615 6 0
616 -933 -613 0
-616 933 0
-616 613 0
617 -730 -709 0
-617 730 0
-617 709 0
618 -617 -747 0
-618 617 0
-618 747 0
619 -934 -616 0
-619 934 0
-619 616 0
620 -593 -42 0
-620 593 0
-620 42 0
621 -935 -619 0
-621 935 0
-621 619 0
622 -49 -731 0
-622 49 0
-622 731 0
623 -622 -24 0
-623 622 0
-623 24 0
624 -936 -621 0
-624 936 0
-624 621 0
625 -810 -25 0
-625 810 0
-625 25 0
626 -625 -9 0
-626 625 0
-626 9 0
627 -937 -624 0
-627 937 0
-627 624 0
628 -750 -708 0
-628 750 0
-628 708 0
629 -628 -25 0
-629 628 0
-629 25 0
630 -938 -627 0
-630 938 0
-630 627 0
631 -713 -22 0
-631 713 0
-631 22 0
632 -631 -773 0
-632 631 0
-632 773 0
633 -939 -630 0
-633 939 0
-633 630 0
634 -465 -17 0
-634 465 0
-634 17 0
635 -940 -633 0
-635 940 0
-635 633 0
636 -750 -29 0
-636 750 0
-636 29 0
637 -636 -18 0
-637 636 0
-637 18 0
638 -941 -635 0
-638 941 0
-638 635 0
639 -762 -14 0
-639 762 0
-639 14 0
640 -639 -718 0
-640 639 0
-640 718 0
641 -942 -638 0
-641 942 0
-641 638 0
642 -21 -12 0
-642 21 0
-642 12 0
643 -642 -790 0
-643 642 0
-643 790 0
644 -943 -641 0
-644 943 0
-644 641 0
645 -35 -12 0
-645 35 0
-645 12 0
646 -645 -790 0
-646 645 0
-646 790 0
647 -944 -644 0
-647 944 0
-647 644 0
648 -522 -698 0
-648 522 0
-648 698 0
649 -945 -647 0
-649 945 0
-649 647 0
650 -723 -713 0
-650 723 0
-650 713 0
651 -650 -6 0
-651 650 0
-651 6 0
652 -946 -649 0
-652 946 0
-652 649 0
653 -708 -764 0
-653 708 0
-653 764 0
654 -653 -740 0
-654 653 0
-654 740 0
655 -947 -652 0
-655 947 0
-655 652 0
656 -706 -695 0
-656 706 0
-656 695 0
657 -656 -16 0
-657 656 0
-657 16 0
658 -948 -655 0
-658 948 0
-658 655 0
659 -748 -13 0
-659 748 0
-659 13 0
660 -659 -17 0
-660 659 0
-660 17 0
661 -949 -658 0
-661 949 0
-661 658 0
662 -46 -700 0
-662 46 0
-662 700 0
663 -662 -703 0
-663 662 0
-663 703 0
664 -950 -661 0
-664 950 0
-664 661 0
665 -694 -1 0
-665 694 0
-665 1 0
666 -665 -773 0
-666 665 0
-666 773 0
667 -951 -664 0
-667 951 0
-667 664 0
668 -46 -12 0
-668 46 0
-668 12 0
669 -668 -718 0
-669 668 0
-669 718 0
670 -952 -667 0
-670 952 0
-670 667 0
671 -730 -15 0
-671 730 0
-671 15 0
672 -671 -718 0
-672 671 0
-672 718 0
673 -953 -670 0
-673 953 0
-673 670 0
674 -711 -10 0
-674 711 0
-674 10 0
675 -674 -23 0
-675 674 0
-675 23 0
676 -954 -673 0
-676 954 0
-676 673 0
677 -33 -5 0
-677 33 0
-677 5 0
678 -677 -701 0
-678 677 0
-678 701 0
679 -955 -676 0
-679 955 0
-679 676 0
680 -742 -7 0
-680 742 0
-680 7 0
681 -680 -46 0
-681 680 0
-681 46 0
682 -956 -679 0
-682 956 0
-682 679 0
683 -44 -21 0
-683 44 0
-683 21 0
684 -683 -775 0
-684 683 0
-684 775 0
685 -957 -682 0
-685 957 0
-685 682 0
686 -26 -794 0
-686 26 0
-686 794 0
687 -686 -694 0
-687 686 0
-687 694 0
688 -958 -685 0
-688 958 0
-688 685 0
689 -605 -20 0
-689 605 0
-689 20 0
690 -959 -688 0
-690 959 0
-690 688 0
691 -29 -21 0
-691 29 0
-691 21 0
692 -691 -24 0
-692 691 0
-692 24 0
693 -960 -690 0
-693 960 0
-693 690 0
-694 -2 0
694 2 0
-695 -1 0
695 1 0
-696 -54 0
696 54 0
-697 -52 0
697 52 0
-698 -9 0
698 9 0
-699 -57 0
699 57 0
-700 -11 0
700 11 0
-701 -10 0
701 10 0
-702 -60 0
702 60 0
-703 -14 0
703 14 0
-704 -63 0
704 63 0
-705 -16 0
705 16 0
-706 -15 0
706 15 0
-707 -66 0
707 66 0
-708 -19 0
708 19 0
-709 -20 0
709 20 0
-710 -69 0
710 69 0
-711 -22 0
711 22 0
-712 -72 0
712 72 0
-713 -23 0
713 23 0
-714 -24 0
714 24 0
-715 -75 0
715 75 0
-716 -13 0
716 13 0
-717 -8 0
717 8 0
-718 -25 0
718 25 0
-719 -78 0
719 78 0
-720 -26 0
720 26 0
-721 -27 0
721 27 0
-722 -81 0
722 81 0
-723 -28 0
723 28 0
-724 -84 0
724 84 0
-725 -29 0
725 29 0
-726 -87 0
726 87 0
-727 -90 0
727 90 0
-728 -31 0
728 31 0
-729 -93 0
729 93 0
-730 -33 0
730 33 0
-731 -32 0
731 32 0
-732 -96 0
732 96 0
-733 -99 0
733 99 0
-734 -34 0
734 34 0
-735 -101 0
735 101 0
-736 -104 0
736 104 0
-737 -35 0
737 35 0
-738 -107 0
738 107 0
-739 -110 0
739 110 0
-740 -17 0
740 17 0
-741 -113 0
741 113 0
-742 -39 0
742 39 0
-743 -116 0
743 116 0
-744 -119 0
744 119 0
-745 -6 0
745 6 0
-746 -122 0
746 122 0
-747 -42 0
747 42 0
-748 -41 0
748 41 0
-749 -125 0
749 125 0
-750 -43 0
750 43 0
-751 -128 0
751 128 0
-752 -44 0
752 44 0
-753 -131 0
753 131 0
-754 -134 0
754 134 0
-755 -30 0
755 30 0
-756 -18 0
756 18 0
-757 -45 0
757 45 0
-758 -137 0
758 137 0
-759 -140 0
759 140 0
-760 -143 0
760 143 0
-761 -146 0
761 146 0
-762 -46 0
762 46 0
-763 -149 0
763 149 0
-764 -4 0
764 4 0
-765 -152 0
765 152 0
-766 -47 0
766 47 0
-767 -155 0
767 155 0
-768 -158 0
768 158 0
-769 -161 0
769 161 0
-770 -164 0
770 164 0
-771 -167 0
771 167 0
-772 -170 0
772 170 0
-773 -3 0
773 3 0
-774 -173 0
774 173 0
-775 -36 0
775 36 0
-776 -176 0
776 176 0
-777 -179 0
777 179 0
-778 -182 0
778 182 0
-779 -185 0
779 185 0
-780 -188 0
780 188 0
-781 -191 0
781 191 0
-782 -194 0
782 194 0
-783 -197 0
783 197 0
-784 -200 0
784 200 0
-785 -203 0
785 203 0
-786 -48 0
786 48 0
-787 -206 0
787 206 0
-788 -209 0
788 209 0
-789 -212 0
789 212 0
-790 -7 0
790 7 0
-791 -215 0
791 215 0
-792 -218 0
792 218 0
-793 -221 0
793 221 0
-794 -5 0
794 5 0
-795 -224 0
795 224 0
-796 -227 0
796 227 0
-797 -230 0
797 230 0
-798 -233 0
798 233 0
-799 -236 0
799 236 0
-800 -239 0
800 239 0
-801 -242 0
801 242 0
-802 -245 0
802 245 0
-803 -248 0
803 248 0
-804 -251 0
804 251 0
-805 -254 0
805 254 0
-806 -257 0
806 257 0
-807 -260 0
807 260 0
-808 -263 0
808 263 0
-809 -266 0
809 266 0
-810 -40 0
810 40 0
-811 -37 0
811 37 0
-812 -269 0
812 269 0
-813 -272 0
813 272 0
-814 -275 0
814 275 0
-815 -278 0
815 278 0
-816 -281 0
816 281 0
-817 -284 0
817 284 0
-818 -287 0
818 287 0
-819 -290 0
819 290 0
-820 -293 0
820 293 0
-821 -296 0
821 296 0
-822 -299 0
822 299 0
-823 -302 0
823 302 0
-824 -305 0
824 305 0
-825 -308 0
825 308 0
-826 -311 0
826 311 0
-827 -314 0
827 314 0
-828 -317 0
828 317 0
-829 -320 0
829 320 0
-830 -323 0
830 323 0
-831 -326 0
831 326 0
-832 -329 0
832 329 0
-833 -332 0
833 332 0
-834 -335 0
834 335 0
-835 -338 0
835 338 0
-836 -341 0
836 341 0
-837 -344 0
837 344 0
-838 -347 0
838 347 0
-839 -350 0
839 350 0
-840 -353 0
840 353 0
-841 -356 0
841 356 0
-842 -359 0
842 359 0
-843 -362 0
843 362 0
-844 -21 0
844 21 0
-845 -365 0
845 365 0
-846 -368 0
846 368 0
-847 -371 0
847 371 0
-848 -374 0
848 374 0
-849 -377 0
849 377 0
-850 -380 0
850 380 0
-851 -383 0
851 383 0
-852 -38 0
852 38 0
-853 -386 0
853 386 0
-854 -389 0
854 389 0
-855 -392 0
855 392 0
-856 -395 0
856 395 0
-857 -398 0
857 398 0
-858 -401 0
858 401 0
-859 -50 0
859 50 0
-860 -404 0
860 404 0
-861 -407 0
861 407 0
-862 -410 0
862 410 0
-863 -413 0
863 413 0
-864 -416 0
864 416 0
-865 -419 0
865 419 0
-866 -422 0
866 422 0
-867 -425 0
867 425 0
-868 -428 0
868 428 0
-869 -431 0
869 431 0
-870 -434 0
870 434 0
-871 -437 0
871 437 0
-872 -440 0
872 440 0
-873 -443 0
873 443 0
-874 -446 0
874 446 0
-875 -449 0
875 449 0
-876 -452 0
876 452 0
-877 -455 0
877 455 0
-878 -457 0
878 457 0
-879 -460 0
879 460 0
-880 -49 0
880 49 0
-881 -463 0
881 463 0
-882 -466 0
882 466 0
-883 -469 0
883 469 0
-884 -472 0
884 472 0
-885 -475 0
885 475 0
-886 -478 0
886 478 0
-887 -481 0
887 481 0
-888 -484 0
888 484 0
-889 -487 0
889 487 0
-890 -490 0
890 490 0
-891 -493 0
891 493 0
-892 -496 0
892 496 0
-893 -499 0
893 499 0
-894 -502 0
894 502 0
-895 -505 0
895 505 0
-896 -508 0
896 508 0
-897 -12 0
897 12 0
-898 -511 0
898 511 0
-899 -514 0
899 514 0
-900 -517 0
900 517 0
-901 -520 0
901 520 0
-902 -523 0
902 523 0
-903 -526 0
903 526 0
-904 -529 0
904 529 0
-905 -532 0
905 532 0
-906 -535 0
906 535 0
-907 -538 0
907 538 0
-908 -541 0
908 541 0
-909 -544 0
909 544 0
-910 -547 0
910 547 0
-911 -549 0
911 549 0
-912 -552 0
912 552 0
-913 -555 0
913 555 0
-914 -558 0
914 558 0
-915 -561 0
915 561 0
-916 -564 0
916 564 0
-917 -567 0
917 567 0
-918 -570 0
918 570 0
-919 -573 0
919 573 0
-920 -576 0
920 576 0
-921 -579 0
921 579 0
-922 -582 0
922 582 0
-923 -585 0
923 585 0
-924 -588 0
924 588 0
-925 -591 0
925 591 0
-926 -594 0
926 594 0
-927 -597 0
927 597 0
-928 -600 0
928 600 0
-929 -603 0
929 603 0
-930 -606 0
930 606 0
-931 -609 0
931 609 0
-932 -612 0
932 612 0
-933 -615 0
933 615 0
-934 -618 0
934 618 0
-935 -620 0
935 620 0
-936 -623 0
936 623 0
-937 -626 0
937 626 0
-938 -629 0
938 629 0
-939 -632 0
939 632 0
-940 -634 0
940 634 0
-941 -637 0
941 637 0
-942 -640 0
942 640 0
-943 -643 0
943 643 0
-944 -646 0
944 646 0
-945 -648 0
945 648 0
-946 -651 0
946 651 0
-947 -654 0
947 654 0
-948 -657 0
948 657 0
-949 -660 0
949 660 0
-950 -663 0
950 663 0
-951 -666 0
951 666 0
-952 -669 0
952 669 0
-953 -672 0
953 672 0
-954 -675 0
954 675 0
-955 -678 0
955 678 0
-956 -681 0
956 681 0
-957 -684 0
957 684 0
-958 -687 0
958 687 0
-959 -689 0
959 689 0
-960 -692 0
960 692 0
693 0
